
n_res = 4;
rcap = [20, 23, 139, 131];
rtype = [1, 1, 2, 2];
n_tasks = 50;
modes =  [{1, 2, 3}, {4, 5, 6}, {7, 8, 9}, {10, 11, 12}, {13, 14, 15}, {16, 17, 18}, {19, 20, 21}, {22, 23, 24}, {25, 26, 27}, {28, 29, 30}, {31, 32, 33}, {34, 35, 36}, {37, 38, 39}, {40, 41, 42}, {43, 44, 45}, {46, 47, 48}, {49, 50, 51}, {52, 53, 54}, {55, 56, 57}, {58, 59, 60}, {61, 62, 63}, {64, 65, 66}, {67, 68, 69}, {70, 71, 72}, {73, 74, 75}, {76, 77, 78}, {79, 80, 81}, {82, 83, 84}, {85, 86, 87}, {88, 89, 90}, {91, 92, 93}, {94, 95, 96}, {97, 98, 99}, {100, 101, 102}, {103, 104, 105}, {106, 107, 108}, {109, 110, 111}, {112, 113, 114}, {115, 116, 117}, {118, 119, 120}, {121, 122, 123}, {124, 125, 126}, {127, 128, 129}, {130, 131, 132}, {133, 134, 135}, {136, 137, 138}, {139, 140, 141}, {142, 143, 144}, {145, 146, 147}, {148, 149, 150}];
succ =  [{8, 7, 5}, {7, 3}, {21, 20, 15, 14, 13, 12}, {21, 20, 15, 14, 13, 12}, {21, 20, 12, 9}, {13, 12, 10}, {20, 14, 12}, {27, 24, 23, 21, 20, 19, 18, 17, 16}, {19, 15, 13}, {27, 20, 17, 16, 14}, {28, 27, 24, 23, 21, 19, 18, 16}, {27, 24, 19, 18, 17, 16}, {27, 24, 18, 17, 16}, {28, 23, 19, 18}, {32, 28, 25, 23, 22}, {39, 31, 26, 25}, {32, 28, 22}, {32, 31, 22}, {32, 22}, {39, 37, 35, 34, 31, 30, 29}, {39, 37, 35, 32, 30, 29}, {39, 37, 35, 34, 30, 29}, {39, 37, 35, 34, 30, 29}, {39, 37, 35, 34, 30, 29}, {35, 34, 30, 29}, {41, 37, 33, 32}, {41, 39, 37, 30}, {31, 29}, {41, 38, 36}, {50, 33}, {50, 33}, {34}, {38, 36}, {50, 36}, {36}, {49, 48, 43, 40}, {38}, {49, 48, 47, 44, 43, 42}, {50, 48, 46, 43}, {47, 44, 42}, {50, 47, 46, 45}, {46, 45}, {45}, {45}, {}, {}, {}, {}, {}, {}];
n_opt = 150;
dur = [3, 5, 7, 1, 8, 8, 1, 2, 7, 3, 3, 4, 1, 5, 6, 1, 1, 3, 1, 4, 10, 5, 7, 10, 1, 9, 10, 3, 6, 10, 1, 7, 10, 3, 5, 7, 4, 5, 9, 1, 7, 9, 4, 4, 8, 4, 4, 6, 1, 4, 9, 1, 9, 10, 5, 5, 10, 6, 8, 10, 5, 6, 8, 1, 1, 7, 1, 1, 9, 1, 7, 7, 2, 3, 6, 7, 9, 10, 8, 9, 9, 1, 7, 10, 2, 3, 5, 2, 5, 5, 3, 8, 10, 2, 4, 5, 2, 3, 10, 1, 5, 9, 2, 6, 8, 3, 4, 7, 2, 7, 8, 3, 3, 4, 3, 3, 9, 4, 5, 5, 3, 9, 10, 6, 8, 9, 6, 6, 7, 3, 4, 9, 7, 7, 10, 3, 4, 8, 1, 2, 10, 7, 7, 9, 1, 3, 3, 2, 3, 8];
rreq = [|0, 0, 0, 3, 0, 3, 2, 2, 2, 4, 0, 0, 0, 0, 0, 8, 5, 0, 8, 8, 0, 0, 0, 1, 0, 4, 1, 7, 0, 6, 6, 6, 0, 7, 4, 2, 0, 3, 0, 0, 0, 0, 4, 0, 0, 0, 4, 0, 6, 3, 3, 0, 0, 0, 6, 3, 0, 3, 0, 1, 0, 0, 0, 3, 0, 0, 0, 0, 5, 6, 3, 0, 5, 0, 0, 0, 8, 0, 3, 2, 0, 4, 0, 0, 0, 2, 2, 0, 10, 0, 9, 6, 4, 0, 3, 2, 0, 0, 0, 4, 0, 0, 4, 0, 0, 0, 0, 0, 9, 8, 8, 3, 0, 0, 5, 0, 0, 8, 0, 3, 7, 7, 0, 3, 2, 0, 0, 0, 0, 0, 5, 0, 8, 0, 6, 7, 4, 0, 0, 0, 0, 4, 0, 3, 4, 3, 3, 0, 5, 4
 |8, 6, 5, 0, 5, 0, 0, 0, 0, 0, 5, 4, 7, 5, 2, 0, 0, 4, 0, 0, 3, 7, 6, 0, 4, 0, 0, 0, 8, 0, 0, 0, 4, 0, 0, 0, 9, 0, 8, 4, 3, 2, 0, 6, 5, 4, 0, 4, 0, 0, 0, 3, 3, 3, 0, 0, 3, 0, 6, 0, 10, 10, 10, 0, 5, 3, 9, 8, 0, 0, 0, 6, 0, 6, 5, 5, 0, 5, 0, 0, 5, 0, 5, 3, 9, 0, 0, 4, 0, 3, 0, 0, 0, 8, 0, 0, 8, 5, 3, 0, 5, 4, 0, 5, 4, 6, 3, 1, 0, 0, 0, 0, 8, 7, 0, 3, 2, 0, 2, 0, 0, 0, 2, 0, 0, 5, 7, 5, 4, 3, 0, 2, 0, 8, 0, 0, 0, 3, 7, 6, 2, 0, 4, 0, 0, 0, 0, 6, 0, 0
 |2, 0, 1, 0, 0, 2, 0, 0, 3, 0, 5, 0, 0, 0, 0, 4, 0, 3, 0, 3, 2, 1, 1, 1, 1, 1, 0, 9, 0, 7, 0, 0, 8, 3, 3, 2, 0, 6, 0, 0, 0, 0, 0, 8, 0, 0, 6, 5, 4, 0, 2, 0, 0, 0, 4, 0, 2, 5, 0, 0, 8, 7, 5, 8, 6, 0, 6, 0, 0, 0, 0, 0, 0, 4, 0, 0, 8, 0, 8, 7, 5, 7, 6, 0, 0, 0, 0, 0, 0, 5, 0, 0, 0, 0, 0, 4, 0, 2, 2, 4, 2, 2, 0, 0, 0, 0, 6, 0, 7, 0, 2, 0, 7, 0, 3, 3, 0, 7, 6, 4, 0, 2, 1, 0, 0, 0, 8, 0, 0, 7, 6, 6, 8, 8, 0, 10, 9, 9, 5, 5, 5, 0, 6, 0, 0, 0, 8, 9, 9, 8
 |0, 6, 0, 5, 5, 0, 5, 4, 0, 2, 0, 2, 5, 5, 5, 0, 4, 0, 4, 0, 0, 0, 0, 0, 0, 0, 2, 0, 4, 0, 9, 8, 0, 0, 0, 0, 9, 0, 7, 10, 10, 10, 6, 0, 5, 7, 0, 0, 0, 3, 0, 8, 7, 6, 0, 2, 0, 0, 7, 7, 0, 0, 0, 0, 0, 3, 0, 6, 2, 9, 8, 8, 6, 0, 5, 3, 0, 1, 0, 0, 0, 0, 0, 6, 3, 2, 1, 7, 6, 0, 7, 6, 6, 4, 4, 0, 8, 0, 0, 0, 0, 0, 3, 3, 1, 6, 0, 6, 0, 7, 0, 6, 0, 4, 0, 0, 3, 0, 0, 0, 4, 0, 0, 6, 3, 2, 0, 5, 3, 0, 0, 0, 0, 0, 7, 0, 0, 0, 0, 0, 0, 7, 0, 3, 7, 5, 0, 0, 0, 0|];